002 001 001 002 002 000 000 000 -99 -99 -99 -99 -99 000 000 000 001 006 023 043 035 061 056 034 025 035 030 009 003 009 020
000 000 000 000 000 000 000 000 -99 -99 -99 -99 -99 000 000 000 000 002 010 019 012 024 066 055 031 051 044 017 003 006 008
000 000 000 000 000 000 000 -99 000 000 -99 -99 -99 -99 000 000 000 000 002 005 005 012 051 058 033 043 038 005 003 003 004
-99 000 000 000 000 000 000 -99 000 000 000 -99 000 -99 000 000 000 000 000 001 001 003 011 025 023 019 035 008 006 003 003
000 000 000 000 000 000 000 000 000 000 000 -99 000 000 -99 000 000 000 000 000 000 001 006 019 016 008 024 011 004 003 002
000 000 000 000 000 000 000 000 -99 000 -99 -99 000 000 000 000 000 000 000 000 000 000 005 021 012 001 008 005 003 003 001
000 000 000 000 000 000 000 000 -99 -99 000 -99 000 000 000 000 000 000 -99 000 000 001 005 013 009 002 002 004 002 003 002
000 000 000 000 000 000 000 -99 -99 -99 -99 -99 -99 000 -99 000 000 000 -99 -99 000 000 003 006 006 003 000 -99 -99 -99 -99
000 000 000 000 000 -99 -99 000 -99 -99 -99 000 -99 -99 -99 -99 000 000 -99 000 000 000 001 006 006 002 000 000 000 000 000
000 000 000 000 000 000 -99 -99 000 000 000 000 -99 -99 -99 -99 -99 000 -99 000 000 000 000 004 009 003 000 000 000 000 000
000 000 000 000 000 -99 000 000 000 000 000 000 -99 -99 -99 -99 -99 -99 000 -99 000 000 000 003 002 000 000 000 000 000 000
000 000 000 000 000 000 -99 000 000 000 000 000 -99 -99 -99 000 000 000 000 000 000 000 000 001 001 000 000 000 000 000 000
000 000 000 000 -99 -99 000 000 000 000 000 -99 -99 -99 -99 000 000 000 000 000 -99 000 000 000 000 000 000 000 000 000 -99
000 000 000 000 -99 -99 000 000 -99 -99 000 -99 -99 -99 -99 -99 000 000 000 -99 -99 -99 -99 000 000 000 000 000 000 000 -99
000 -99 000 000 000 000 -99 000 -99 -99 -99 -99 -99 000 -99 -99 000 -99 -99 -99 -99 -99 -99 000 000 000 000 000 000 000 000
000 -99 000 000 000 000 000 000 -99 -99 -99 -99 -99 000 -99 -99 -99 -99 -99 -99 -99 000 -99 000 000 000 000 000 000 000 -99
000 000 -99 -99 000 000 000 000 000 -99 -99 -99 -99 000 000 -99 -99 000 -99 -99 -99 -99 000 000 000 000 000 000 000 000 000
000 000 000 -99 -99 000 000 000 000 -99 -99 -99 -99 000 000 -99 000 000 -99 -99 -99 -99 000 -99 000 000 000 000 000 000 000
000 000 000 000 -99 -99 -99 000 000 000 -99 -99 -99 -99 -99 -99 000 000 -99 -99 -99 000 001 -99 -99 -99 000 000 000 000 -99
000 000 000 000 -99 -99 -99 000 000 000 -99 -99 -99 -99 -99 -99 000 000 -99 -99 -99 000 001 -99 -99 -99 000 000 000 000 -99
000 000 000 000 000 000 -99 000 000 000 -99 -99 -99 -99 -99 -99 000 000 -99 000 000 000 000 -99 -99 -99 -99 -99 -99 -99 -99
000 000 000 000 000 000 000 000 000 000 -99 -99 -99 -99 -99 000 000 000 -99 000 000 000 000 -99 -99 -99 -99 -99 -99 -99 -99
000 000 000 000 000 000 000 000 000 000 -99 -99 -99 -99 -99 000 000 000 -99 000 000 000 000 -99 -99 -99 -99 -99 -99 -99 -99
000 000 000 000 000 000 000 000 000 -99 000 -99 -99 -99 000 000 000 000 000 000 000 000 000 -99 -99 -99 -99 -99 -99 -99 -99
000 000 000 000 000 000 -99 000 000 000 000 -99 -99 -99 000 000 000 000 000 000 000 -99 000 -99 -99 -99 -99 -99 -99 -99 -99
000 -99 000 000 000 000 000 000 000 000 000 -99 -99 000 000 000 000 000 000 -99 -99 -99 000 -99 -99 -99 -99 -99 -99 000 000
000 -99 000 000 000 000 000 000 000 000 -99 -99 -99 -99 -99 -99 000 000 000 -99 -99 000 000 -99 -99 -99 -99 -99 -99 000 000
000 -99 000 000 -99 -99 000 000 000 -99 -99 -99 -99 -99 000 000 000 000 000 -99 -99 000 000 -99 -99 -99 -99 -99 -99 -99 000
000 -99 -99 -99 -99 000 000 000 000 -99 -99 -99 -99 -99 000 000 000 000 000 000 -99 000 -99 -99 -99 -99 -99 -99 -99 -99 000
-99 000 000 -99 -99 000 000 000 000 000 -99 -99 -99 -99 000 000 000 000 000 000 -99 000 -99 -99 -99 -99 -99 -99 -99 -99 -99
000 000 000 000 000 000 000 000 000 000 -99 -99 -99 -99 000 000 000 000 000 000 -99 000 -99 000 -99 -99 -99 -99 -99 -99 -99
000 000 000 000 000 000 000 000 000 -99 -99 -99 -99 -99 000 -99 000 000 000 000 -99 -99 -99 000 000 -99 -99 -99 -99 -99 -99
000 000 001 000 000 000 000 000 000 -99 -99 -99 -99 000 000 -99 000 000 000 -99 -99 -99 000 000 000 -99 -99 -99 -99 -99 -99
000 000 003 000 000 000 000 000 -99 -99 -99 -99 -99 -99 000 000 000 000 000 -99 -99 -99 000 000 000 000 000 000 000 000 -99
001 005 002 000 000 000 000 000 -99 000 -99 -99 -99 000 000 000 000 000 -99 000 000 -99 -99 000 000 000 000 000 000 000 -99
000 001 001 000 000 000 000 000 000 -99 -99 -99 -99 000 000 000 000 000 -99 000 000 -99 -99 000 000 000 000 000 000 -99 -99
000 000 000 000 000 -99 -99 000 000 000 -99 -99 -99 000 000 000 000 000 000 000 000 -99 -99 000 000 000 000 000 -99 -99 -99
000 -99 -99 000 000 -99 -99 000 000 -99 -99 -99 000 000 000 000 000 000 000 -99 -99 -99 000 000 000 000 000 -99 -99 -99 -99
000 -99 000 000 000 000 -99 -99 -99 -99 -99 -99 -99 -99 000 000 000 000 -99 -99 -99 -99 000 000 000 000 -99 -99 -99 -99 -99
000 -99 000 000 000 -99 -99 -99 -99 -99 -99 -99 000 000 000 000 000 000 -99 -99 000 -99 -99 000 -99 000 000 -99 -99 -99 -99
-99 000 000 000 000 -99 -99 -99 -99 -99 -99 000 000 000 000 000 -99 -99 -99 -99 000 -99 -99 -99 -99 -99 -99 -99 -99 -99 -99
000 000 000 000 -99 -99 -99 -99 -99 -99 000 000 000 -99 000 000 -99 -99 -99 000 000 -99 -99 -99 -99 -99 -99 -99 -99 -99 -99
000 000 -99 000 -99 -99 -99 000 000 000 000 000 -99 -99 000 000 -99 -99 -99 000 -99 -99 -99 -99 -99 -99 -99 -99 -99 -99 -99
000 -99 -99 -99 -99 -99 -99 -99 000 -99 -99 -99 000 -99 000 000 000 000 000 000 -99 -99 -99 -99 -99 -99 -99 -99 -99 -99 -99
-99 -99 -99 -99 -99 -99 -99 -99 -99 -99 -99 000 000 -99 000 000 000 -99 000 000 -99 -99 -99 -99 -99 -99 -99 -99 -99 -99 -99
-99 -99 -99 -99 -99 -99 -99 -99 -99 -99 -99 000 -99 -99 000 000 -99 000 000 000 -99 -99 -99 -99 -99 -99 -99 -99 -99 -99 -99
-99 -99 -99 -99 -99 -99 -99 -99 -99 -99 -99 000 -99 -99 000 -99 -99 000 000 000 -99 -99 -99 -99 -99 -99 -99 -99 -99 -99 -99
-99 -99 -99 -99 -99 -99 -99 -99 -99 -99 -99 -99 -99 -99 -99 -99 -99 000 -99 -99 -99 -99 -99 -99 -99 -99 -99 -99 -99 -99 -99
-99 -99 -99 -99 -99 -99 -99 -99 -99 -99 -99 -99 -99 -99 -99 -99 -99 -99 -99 -99 -99 -99 -99 -99 -99 -99 -99 -99 -99 -99 -99
-99 -99 -99 -99 -99 -99 -99 -99 -99 -99 -99 -99 -99 -99 -99 -99 -99 -99 -99 -99 -99 -99 -99 -99 -99 -99 -99 -99 -99 -99 -99
-99 -99 -99 -99 -99 -99 -99 -99 -99 -99 -99 -99 -99 -99 -99 -99 -99 -99 -99 -99 -99 -99 -99 -99 -99 -99 -99 -99 -99 -99 -99
-99 -99 -99 -99 -99 -99 -99 -99 -99 -99 -99 -99 -99 -99 -99 -99 -99 -99 -99 -99 -99 -99 -99 -99 -99 -99 -99 -99 -99 -99 -99
-99 -99 -99 -99 -99 -99 -99 -99 -99 -99 -99 -99 -99 -99 -99 -99 -99 -99 -99 -99 -99 -99 -99 -99 -99 -99 -99 -99 -99 -99 -99
-99 -99 -99 -99 -99 -99 -99 -99 -99 -99 -99 -99 -99 -99 -99 -99 -99 -99 -99 -99 -99 -99 -99 -99 -99 -99 -99 -99 -99 -99 -99
-99 -99 -99 -99 -99 -99 -99 -99 -99 -99 -99 -99 -99 -99 -99 -99 -99 -99 -99 -99 -99 -99 -99 -99 -99 -99 -99 -99 -99 -99 -99
